13
-1 13 24 35 46 57 68 79 80 91 22 33 44
51 -1 62 73 84 95 16 27 38 49 50 61 72
13 24 -1 35 46 57 68 79 80 91 12 23 34
15 26 37 -1 48 59 60 71 82 93 14 25 36
17 28 39 40 -1 51 62 73 84 95 26 37 48
19 30 41 52 63 -1 74 85 96 27 38 49 50
21 32 43 54 65 76 -1 87 98 29 40 51 62
23 34 45 56 67 78 89 -1 91 32 43 54 65
12 23 34 45 56 67 78 89 -1 33 44 55 66
10 21 32 43 54 65 76 87 98 -1 35 46 57
11 22 33 44 55 66 77 88 99 11 -1 36 47
13 24 35 46 57 68 79 80 91 22 33 -1 48
15 26 37 48 59 60 71 82 93 14 25 36 -1
